data;
set K:= K1 K2 K3 K4 K5 K6 K7 ;

set F:= F1 F2 ;

set Q:= Q1 Q2 ;

param T:= 45;
param V: 
	K1  K2  K3  K4  K5  K6  K7  :=
Q1	1   1   1   1   0   0   0   
Q2	0   0   0   0   1   1   1   
; # if resorce k is of type q

param TF:= 
K1 6
K2 6
K3 6
K4 6
K5 12
K6 12
K7 12
; # number of continuous time slots resource can fly

param TR:= 
K1 2
K2 2
K3 2
K4 2
K5 4
K6 4
K7 4
; #  number of continuous time slots resource k needs to rest between flights

param P:= 
K1 36
K2 36
K3 36
K4 36
K5 36
K6 36
K7 36
; #  number of continuous time slots a pilot can be present including rest times for resource k 

param N:= 
K1 4
K2 4
K3 4
K4 4
K5 2
K6 2
K7 2
; # max number of flights resource k can fly in the total time period

param A: 
	K1  K2  K3  K4  K5  K6  K7  :=
1	1   1   1   1   1   1   1   
2	1   1   1   1   1   1   1   
3	1   1   1   1   1   1   1   
4	1   1   1   1   1   1   1   
5	1   1   1   1   1   1   1   
6	1   1   1   1   1   1   1   
7	1   1   1   1   1   1   1   
8	1   1   1   1   1   1   1   
9	1   1   1   1   1   1   1   
10	1   1   1   1   1   1   1   
11	1   1   1   1   1   1   1   
12	1   1   1   1   1   1   1   
13	1   1   1   1   1   1   1   
14	1   1   1   1   1   1   1   
15	1   1   1   1   1   1   1   
16	1   1   1   1   1   1   1   
17	1   1   1   1   1   1   1   
18	1   1   1   1   1   1   1   
19	1   1   1   1   1   1   1   
20	1   1   1   1   1   1   1   
21	1   1   1   1   1   1   1   
22	1   1   1   1   1   1   1   
23	1   1   1   1   1   1   1   
24	1   1   1   1   1   1   1   
25	1   1   1   1   1   1   1   
26	1   1   1   1   1   1   1   
27	1   1   1   1   1   1   1   
28	1   1   1   1   1   1   1   
29	1   1   1   1   1   1   1   
30	1   1   1   1   1   1   1   
31	1   1   1   1   1   1   1   
32	1   1   1   1   1   1   1   
33	1   1   1   1   1   1   1   
34	1   1   1   1   1   1   1   
35	1   1   1   1   1   1   1   
36	1   1   1   1   1   1   1   
37	1   1   1   1   1   1   1   
38	1   1   1   1   1   1   1   
39	1   1   1   1   1   1   1   
40	1   1   1   1   1   1   1   
41	1   1   1   1   1   1   1   
42	1   1   1   1   1   1   1   
43	1   1   1   1   1   1   1   
44	1   1   1   1   1   1   1   
45	1   1   1   1   1   1   1   
; # availability of resorce k in time slot t

param B: 
	F1  F2  :=
Q1	0   0   
Q2	0   0   
; # if front f requires resources of type q

param U: 
	F1  F2  :=
K1	0   0   
K2	0   0   
K3	0   0   
K4	0   0   
K5	1   1   
K6	2   2   
K7	2   2   
; # transit time of resource

param C:= 
K1 900
K2 900
K3 1500
K4 4500
K5 5500
K6 5500
K7 5500
; #  water capacity of resource k

param S:= 
F1 9
F2 10
; # max number of resources that can fly at front f in the same time slot

param D:= 

[*,*,F1 ]:  K1    K2    K3    K4    K5    K6    K7    :=
1           1.79  1.79  1.79  1.42  1.07  1.07  1.07  
2           1.79  1.79  1.79  1.42  1.07  1.07  1.07  
3           1.79  1.79  1.79  1.42  1.07  1.07  1.07  
4           1.79  1.79  1.79  1.42  1.07  1.07  1.07  
5           1.79  1.79  1.79  1.42  1.07  1.07  1.07  
6           1.79  1.79  1.79  1.42  1.07  1.07  1.07  
7           1.79  1.79  1.79  1.42  1.07  1.07  1.07  
8           1.79  1.79  1.79  1.42  1.07  1.07  1.07  
9           1.79  1.79  1.79  1.42  1.07  1.07  1.07  
10          1.79  1.79  1.79  1.42  1.07  1.07  1.07  
11          1.79  1.79  1.79  1.42  1.07  1.07  1.07  
12          1.79  1.79  1.79  1.42  1.07  1.07  1.07  
13          1.79  1.79  1.79  1.42  1.07  1.07  1.07  
14          1.79  1.79  1.79  1.42  1.07  1.07  1.07  
15          1.79  1.79  1.79  1.42  1.07  1.07  1.07  
16          1.79  1.79  1.79  1.42  1.07  1.07  1.07  
17          1.79  1.79  1.79  1.42  1.07  1.07  1.07  
18          1.79  1.79  1.79  1.42  1.07  1.07  1.07  
19          1.79  1.79  1.79  1.42  1.07  1.07  1.07  
20          1.79  1.79  1.79  1.42  1.07  1.07  1.07  
21          1.79  1.79  1.79  1.42  1.07  1.07  1.07  
22          1.79  1.79  1.79  1.42  1.07  1.07  1.07  
23          1.79  1.79  1.79  1.42  1.07  1.07  1.07  
24          1.79  1.79  1.79  1.42  1.07  1.07  1.07  
25          1.70  1.70  1.70  1.35  1.02  1.02  1.02  
26          1.70  1.70  1.70  1.35  1.02  1.02  1.02  
27          1.70  1.70  1.70  1.35  1.02  1.02  1.02  
28          1.70  1.70  1.70  1.35  1.02  1.02  1.02  
29          1.70  1.70  1.70  1.35  1.02  1.02  1.02  
30          1.70  1.70  1.70  1.35  1.02  1.02  1.02  
31          1.70  1.70  1.70  1.35  1.02  1.02  1.02  
32          1.70  1.70  1.70  1.35  1.02  1.02  1.02  
33          1.70  1.70  1.70  1.35  1.02  1.02  1.02  
34          1.79  1.79  1.79  1.42  1.07  1.07  1.07  
35          1.79  1.79  1.79  1.42  1.07  1.07  1.07  
36          1.79  1.79  1.79  1.42  1.07  1.07  1.07  
37          1.79  1.79  1.79  1.42  1.07  1.07  1.07  
38          1.79  1.79  1.79  1.42  1.07  1.07  1.07  
39          1.79  1.79  1.79  1.42  1.07  1.07  1.07  
40          1.79  1.79  1.79  1.42  1.07  1.07  1.07  
41          1.79  1.79  1.79  1.42  1.07  1.07  1.07  
42          1.79  1.79  1.79  1.42  1.07  1.07  1.07  
43          1.79  1.79  1.79  1.42  1.07  1.07  1.07  
44          1.79  1.79  1.79  1.42  1.07  1.07  1.07  
45          1.79  1.79  1.79  1.42  1.07  1.07  1.07  

[*,*,F2 ]:  K1    K2    K3    K4    K5    K6    K7    :=
1           1.59  1.59  1.59  1.26  0.95  0.95  0.95  
2           1.59  1.59  1.59  1.26  0.95  0.95  0.95  
3           1.59  1.59  1.59  1.26  0.95  0.95  0.95  
4           1.59  1.59  1.59  1.26  0.95  0.95  0.95  
5           1.59  1.59  1.59  1.26  0.95  0.95  0.95  
6           1.59  1.59  1.59  1.26  0.95  0.95  0.95  
7           1.59  1.59  1.59  1.26  0.95  0.95  0.95  
8           1.59  1.59  1.59  1.26  0.95  0.95  0.95  
9           1.59  1.59  1.59  1.26  0.95  0.95  0.95  
10          1.59  1.59  1.59  1.26  0.95  0.95  0.95  
11          1.59  1.59  1.59  1.26  0.95  0.95  0.95  
12          1.59  1.59  1.59  1.26  0.95  0.95  0.95  
13          1.59  1.59  1.59  1.26  0.95  0.95  0.95  
14          1.59  1.59  1.59  1.26  0.95  0.95  0.95  
15          1.59  1.59  1.59  1.26  0.95  0.95  0.95  
16          1.59  1.59  1.59  1.26  0.95  0.95  0.95  
17          1.59  1.59  1.59  1.26  0.95  0.95  0.95  
18          1.59  1.59  1.59  1.26  0.95  0.95  0.95  
19          1.59  1.59  1.59  1.26  0.95  0.95  0.95  
20          1.59  1.59  1.59  1.26  0.95  0.95  0.95  
21          1.59  1.59  1.59  1.26  0.95  0.95  0.95  
22          1.59  1.59  1.59  1.26  0.95  0.95  0.95  
23          1.59  1.59  1.59  1.26  0.95  0.95  0.95  
24          1.59  1.59  1.59  1.26  0.95  0.95  0.95  
25          1.51  1.51  1.51  1.20  0.90  0.90  0.90  
26          1.51  1.51  1.51  1.20  0.90  0.90  0.90  
27          1.51  1.51  1.51  1.20  0.90  0.90  0.90  
28          1.51  1.51  1.51  1.20  0.90  0.90  0.90  
29          1.51  1.51  1.51  1.20  0.90  0.90  0.90  
30          1.51  1.51  1.51  1.20  0.90  0.90  0.90  
31          1.51  1.51  1.51  1.20  0.90  0.90  0.90  
32          1.51  1.51  1.51  1.20  0.90  0.90  0.90  
33          1.51  1.51  1.51  1.20  0.90  0.90  0.90  
34          1.59  1.59  1.59  1.26  0.95  0.95  0.95  
35          1.59  1.59  1.59  1.26  0.95  0.95  0.95  
36          1.59  1.59  1.59  1.26  0.95  0.95  0.95  
37          1.59  1.59  1.59  1.26  0.95  0.95  0.95  
38          1.59  1.59  1.59  1.26  0.95  0.95  0.95  
39          1.59  1.59  1.59  1.26  0.95  0.95  0.95  
40          1.59  1.59  1.59  1.26  0.95  0.95  0.95  
41          1.59  1.59  1.59  1.26  0.95  0.95  0.95  
42          1.59  1.59  1.59  1.26  0.95  0.95  0.95  
43          1.59  1.59  1.59  1.26  0.95  0.95  0.95  
44          1.59  1.59  1.59  1.26  0.95  0.95  0.95  
45          1.59  1.59  1.59  1.26  0.95  0.95  0.95  
; # downloads resource k can do at front f in time t if intermediate time slot

param E:= 

[*,*,F1 ]:  K1    K2    K3    K4    K5    K6    K7    :=
1           0.73  0.34  0.82  0.00  0.05  0.37  0.26  
2           0.73  0.34  0.82  0.00  0.05  0.37  0.26  
3           0.73  0.34  0.82  0.00  0.05  0.37  0.26  
4           0.73  0.34  0.82  0.00  0.05  0.37  0.26  
5           0.73  0.34  0.82  0.00  0.05  0.37  0.26  
6           0.73  0.34  0.82  0.00  0.05  0.37  0.26  
7           0.73  0.34  0.82  0.00  0.05  0.37  0.26  
8           0.73  0.34  0.82  0.00  0.05  0.37  0.26  
9           0.73  0.34  0.82  0.00  0.05  0.37  0.26  
10          0.73  0.34  0.82  0.00  0.05  0.37  0.26  
11          0.73  0.34  0.82  0.00  0.05  0.37  0.26  
12          0.73  0.34  0.82  0.00  0.05  0.37  0.26  
13          0.73  0.34  0.82  0.00  0.05  0.37  0.26  
14          0.73  0.34  0.82  0.00  0.05  0.37  0.26  
15          0.73  0.34  0.82  0.00  0.05  0.37  0.26  
16          0.73  0.34  0.82  0.00  0.05  0.37  0.26  
17          0.73  0.34  0.82  0.00  0.05  0.37  0.26  
18          0.73  0.34  0.82  0.00  0.05  0.37  0.26  
19          0.73  0.34  0.82  0.00  0.05  0.37  0.26  
20          0.73  0.34  0.82  0.00  0.05  0.37  0.26  
21          0.73  0.34  0.82  0.00  0.05  0.37  0.26  
22          0.73  0.34  0.82  0.00  0.05  0.37  0.26  
23          0.73  0.34  0.82  0.00  0.05  0.37  0.26  
24          0.73  0.34  0.82  0.00  0.05  0.37  0.26  
25          0.70  0.32  0.78  0.00  0.05  0.36  0.24  
26          0.70  0.32  0.78  0.00  0.05  0.36  0.24  
27          0.70  0.32  0.78  0.00  0.05  0.36  0.24  
28          0.70  0.32  0.78  0.00  0.05  0.36  0.24  
29          0.70  0.32  0.78  0.00  0.05  0.36  0.24  
30          0.70  0.32  0.78  0.00  0.05  0.36  0.24  
31          0.70  0.32  0.78  0.00  0.05  0.36  0.24  
32          0.70  0.32  0.78  0.00  0.05  0.36  0.24  
33          0.70  0.32  0.78  0.00  0.05  0.36  0.24  
34          0.73  0.34  0.82  0.00  0.05  0.37  0.26  
35          0.73  0.34  0.82  0.00  0.05  0.37  0.26  
36          0.73  0.34  0.82  0.00  0.05  0.37  0.26  
37          0.73  0.34  0.82  0.00  0.05  0.37  0.26  
38          0.73  0.34  0.82  0.00  0.05  0.37  0.26  
39          0.73  0.34  0.82  0.00  0.05  0.37  0.26  
40          0.73  0.34  0.82  0.00  0.05  0.37  0.26  
41          0.73  0.34  0.82  0.00  0.05  0.37  0.26  
42          0.73  0.34  0.82  0.00  0.05  0.37  0.26  
43          0.73  0.34  0.82  0.00  0.05  0.37  0.26  
44          0.73  0.34  0.82  0.00  0.05  0.37  0.26  
45          0.73  0.34  0.82  0.00  0.05  0.37  0.26  

[*,*,F2 ]:  K1    K2    K3    K4    K5    K6    K7    :=
1           0.60  0.29  0.78  0.00  0.02  0.30  0.21  
2           0.60  0.29  0.78  0.00  0.02  0.30  0.21  
3           0.60  0.29  0.78  0.00  0.02  0.30  0.21  
4           0.60  0.29  0.78  0.00  0.02  0.30  0.21  
5           0.60  0.29  0.78  0.00  0.02  0.30  0.21  
6           0.60  0.29  0.78  0.00  0.02  0.30  0.21  
7           0.60  0.29  0.78  0.00  0.02  0.30  0.21  
8           0.60  0.29  0.78  0.00  0.02  0.30  0.21  
9           0.60  0.29  0.78  0.00  0.02  0.30  0.21  
10          0.60  0.29  0.78  0.00  0.02  0.30  0.21  
11          0.60  0.29  0.78  0.00  0.02  0.30  0.21  
12          0.60  0.29  0.78  0.00  0.02  0.30  0.21  
13          0.60  0.29  0.78  0.00  0.02  0.30  0.21  
14          0.60  0.29  0.78  0.00  0.02  0.30  0.21  
15          0.60  0.29  0.78  0.00  0.02  0.30  0.21  
16          0.60  0.29  0.78  0.00  0.02  0.30  0.21  
17          0.60  0.29  0.78  0.00  0.02  0.30  0.21  
18          0.60  0.29  0.78  0.00  0.02  0.30  0.21  
19          0.60  0.29  0.78  0.00  0.02  0.30  0.21  
20          0.60  0.29  0.78  0.00  0.02  0.30  0.21  
21          0.60  0.29  0.78  0.00  0.02  0.30  0.21  
22          0.60  0.29  0.78  0.00  0.02  0.30  0.21  
23          0.60  0.29  0.78  0.00  0.02  0.30  0.21  
24          0.60  0.29  0.78  0.00  0.02  0.30  0.21  
25          0.57  0.27  0.74  0.00  0.02  0.29  0.20  
26          0.57  0.27  0.74  0.00  0.02  0.29  0.20  
27          0.57  0.27  0.74  0.00  0.02  0.29  0.20  
28          0.57  0.27  0.74  0.00  0.02  0.29  0.20  
29          0.57  0.27  0.74  0.00  0.02  0.29  0.20  
30          0.57  0.27  0.74  0.00  0.02  0.29  0.20  
31          0.57  0.27  0.74  0.00  0.02  0.29  0.20  
32          0.57  0.27  0.74  0.00  0.02  0.29  0.20  
33          0.57  0.27  0.74  0.00  0.02  0.29  0.20  
34          0.60  0.29  0.78  0.00  0.02  0.30  0.21  
35          0.60  0.29  0.78  0.00  0.02  0.30  0.21  
36          0.60  0.29  0.78  0.00  0.02  0.30  0.21  
37          0.60  0.29  0.78  0.00  0.02  0.30  0.21  
38          0.60  0.29  0.78  0.00  0.02  0.30  0.21  
39          0.60  0.29  0.78  0.00  0.02  0.30  0.21  
40          0.60  0.29  0.78  0.00  0.02  0.30  0.21  
41          0.60  0.29  0.78  0.00  0.02  0.30  0.21  
42          0.60  0.29  0.78  0.00  0.02  0.30  0.21  
43          0.60  0.29  0.78  0.00  0.02  0.30  0.21  
44          0.60  0.29  0.78  0.00  0.02  0.30  0.21  
45          0.60  0.29  0.78  0.00  0.02  0.30  0.21  
; # downloads resource k can do at front f in time t if starting or ending flight

param W: 
	F1        F2        :=
1	280.48    280.48    
2	1121.93   1121.93   
3	1121.93   1121.93   
4	1121.93   1121.93   
5	1121.93   1121.93   
6	1121.93   1121.93   
7	1121.93   1121.93   
8	1121.93   1121.93   
9	1121.93   1121.93   
10	1121.93   1121.93   
11	1121.93   1121.93   
12	1121.93   1121.93   
13	1121.93   1121.93   
14	1121.93   1121.93   
15	1121.93   1121.93   
16	1121.93   1121.93   
17	1121.93   1121.93   
18	1121.93   1121.93   
19	1121.93   1121.93   
20	1121.93   1121.93   
21	1121.93   1121.93   
22	1121.93   1121.93   
23	1121.93   1121.93   
24	1121.93   1121.93   
25	1121.93   1121.93   
26	1121.93   1121.93   
27	1121.93   1121.93   
28	1121.93   1121.93   
29	1121.93   1121.93   
30	1121.93   1121.93   
31	1121.93   1121.93   
32	1121.93   1121.93   
33	1121.93   1121.93   
34	1121.93   1121.93   
35	1121.93   1121.93   
36	1121.93   1121.93   
37	1121.93   1121.93   
38	1121.93   1121.93   
39	1121.93   1121.93   
40	1121.93   1121.93   
41	1121.93   1121.93   
42	1121.93   1121.93   
43	1121.93   1121.93   
44	1121.93   1121.93   
45	280.48    280.48    
; # water needed at front f in time slot t

param M := 100000000; 

param a1:= 10000000;

param a2:= 100;

param a3:= 0.0001;
